32      4       
10      10      10      10      
0       0       0       0       0       5       2       3       4       6       8       
4       1       1       1       0       3       5       9       10      
10      3       5       7       0       3       5       7       10      
8       5       0       4       1       5       9       10      11      13      14      
8       4       6       0       3       6       11      12      13      14      15      16      
9       7       0       3       4       5       11      12      13      14      16      
8       6       3       6       0       4       12      13      14      16      
6       6       6       0       6       4       12      15      17      25      
3       3       2       1       0       6       16      17      18      21      24      31      
10      0       4       6       3       3       12      17      25      
3       3       0       4       2       8       17      18      21      24      25      26      30      31      
10      6       0       3       6       8       18      20      21      24      26      27      30      31      
5       0       4       6       7       7       17      21      24      25      26      30      31      
10      4       0       2       3       7       17      21      22      24      25      30      31      
4       3       4       0       8       8       19      20      21      22      23      24      30      31      
2       0       4       5       6       5       25      26      27      29      30      
8       5       6       0       5       3       19      20      23      
8       5       5       6       0       3       19      22      23      
10      2       2       6       0       2       28      29      
2       2       0       2       4       2       28      29      
6       0       4       3       1       2       28      29      
9       4       7       0       2       2       28      29      
10      4       3       3       0       1       29      
8       4       0       2       5       1       28      
4       0       2       4       7       1       28      
3       0       5       4       2       1       28      
4       5       0       1       3       1       28      
6       4       6       6       0       1       32      
8       4       0       6       2       1       32      
8       4       3       5       0       1       32      
1       2       2       4       0       1       32      
0       0       0       0       0       0       
